maxTime = 336; 
minNeeded = array2d(real_blocks, TIME, [ 
0, 0, 1, 1, 0, 0, 0, 0, 0, 0, 0, 0, 0, 0, 0, 0, 1, 1, 1, 1, 1, 1, 1, 1, 1, 1, 1, 2, 2, 2, 2, 2, 2, 2, 2, 2, 2, 3, 3, 3, 4, 4, 4, 4, 4, 4, 4, 3, 0, 1, 1, 1, 1, 0, 0, 0, 0, 0, 0, 0, 0, 0, 0, 1, 1, 1, 1, 1, 1, 1, 1, 1, 1, 1, 1, 2, 2, 2, 2, 2, 2, 2, 2, 2, 2, 3, 3, 3, 4, 4, 4, 5, 5, 4, 4, 3, 2, 1, 1, 1, 1, 0, 0, 0, 0, 0, 0, 0, 0, 0, 0, 0, 1, 1, 1, 1, 1, 1, 1, 1, 1, 1, 1, 2, 1, 2, 2, 2, 2, 2, 2, 2, 2, 3, 3, 3, 4, 4, 4, 5, 5, 4, 4, 3, 2, 1, 1, 1, 0, 0, 0, 0, 0, 0, 0, 0, 0, 0, 0, 0, 0, 1, 1, 1, 1, 1, 1, 1, 1, 1, 1, 1, 1, 1, 1, 1, 2, 2, 2, 2, 2, 3, 2, 3, 3, 3, 3, 4, 3, 3, 3, 2, 2, 1, 1, 1, 0, 0, 0, 0, 0, 0, 0, 0, 0, 0, 0, 1, 1, 1, 1, 1, 1, 1, 1, 1, 1, 1, 1, 1, 1, 1, 1, 1, 2, 1, 2, 2, 2, 2, 2, 2, 3, 3, 3, 3, 3, 3, 3, 2, 2, 1, 1, 1, 0, 0, 0, 0, 0, 0, 0, 0, 0, 0, 0, 0, 1, 0, 1, 1, 1, 1, 1, 1, 1, 1, 1, 1, 1, 1, 1, 1, 1, 1, 2, 2, 2, 2, 2, 2, 2, 2, 2, 3, 2, 2, 2, 2, 2, 1, 1, 1, 0, 0, 0, 0, 0, 0, 0, 0, 0, 0, 0, 0, 0, 1, 1, 1, 1, 1, 1, 1, 1, 1, 1, 1, 1, 1, 1, 1, 2, 1, 2, 2, 2, 2, 2, 2, 3, 3, 3, 3, 3, 3, 3, 2, 0, 0, 0, 0, 0, 0, 0, 0, 0, 0, 0, 0, 0, 0, 1, 0, 1, 1, 1, 1, 1, 0, 0, 1, 2, 0, 0, 1, 1, 0, 0, 1, 2, 1, 0, 0, 1, 3, 2, 0, 2, 3, 0, 0, 0, 0, 0, 0, 0, 0, 0, 0, 0, 0, 0, 0, 0, 0, 0, 0, 0, 0, 0, 0, 0, 1, 0, 1, 1, 0, 1, 1, 0, 0, 0, 0, 1, 0, 0, 1, 1, 0, 0, 1, 5, 2, 1, 2, 0, 3, 0, 2, 1, 0, 1, 0, 0, 0, 0, 0, 0, 0, 0, 0, 0, 0, 0, 0, 0, 0, 0, 0, 0, 0, 0, 0, 0, 0, 0, 0, 1, 0, 1, 0, 1, 0, 0, 1, 2, 0, 1, 0, 1, 2, 1, 0, 2, 1, 0, 1, 0, 0, 0, 0, 0, 0, 0, 0, 0, 0, 0, 0, 0, 0, 0, 0, 0, 0, 0, 0, 0, 0, 0, 0, 0, 0, 0, 0, 0, 0, 0, 0, 0, 0, 0, 0, 0, 0, 1, 0, 2, 0, 0, 1, 2, 0, 2, 0, 1, 0, 0, 0, 0, 0, 0, 0, 0, 0, 0, 0, 0, 0, 0, 0, 0, 0, 0, 0, 0, 0, 0, 0, 0, 0, 0, 1, 0, 0, 0, 1, 1, 0, 0, 0, 1, 0, 0, 0, 0, 0, 1, 1, 0, 0, 0, 1, 0, 0, 0, 0, 0, 0, 0, 0, 0, 0, 0, 0, 0, 0, 0, 0, 0, 0, 0, 0, 0, 0, 0, 0, 0, 0, 0, 0, 0, 0, 0, 0, 0, 0, 1, 0, 0, 0, 0, 0, 0, 0, 0, 0, 0, 0, 0, 0, 0, 0, 0, 0, 0, 0, 0, 0, 0, 0, 0, 0, 0, 0, 0, 0, 0, 0, 0, 0, 0, 0, 0, 0, 0, 0, 0, 0, 0, 0, 1, 0, 0, 0, 0, 0, 1, 1, 0, 1, 0, 1, 0, 0, 0, 0, 1, 1, 0, 0, 0, 0, 0, 0, 0, 1, 0, 0, 0, 0, 0, 0, 0, 0, 0, 1, 2, 2, 3, 4, 3, 4, 3, 4, 4, 4, 4, 4, 4, 4, 4, 4, 4, 4, 5, 5, 5, 5, 8, 7, 7, 8, 8, 9, 9, 9, 9, 9, 6, 5, 0, 0, 0, 1, 0, 0, 0, 0, 0, 0, 0, 0, 0, 0, 2, 3, 3, 4, 3, 3, 3, 3, 4, 4, 4, 4, 4, 4, 4, 4, 4, 4, 4, 4, 4, 5, 5, 6, 6, 6, 7, 8, 8, 8, 8, 8, 5, 4, 4, 2, 1, 1, 1, 0, 0, 0, 0, 0, 0, 0, 0, 1, 1, 2, 3, 4, 4, 4, 3, 4, 4, 4, 4, 4, 4, 4, 4, 4, 4, 4, 4, 4, 5, 5, 5, 5, 6, 6, 7, 8, 8, 9, 8, 8, 5, 4, 2, 1, 1, 1, 0, 0, 0, 0, 0, 0, 0, 0, 0, 0, 1, 1, 2, 2, 1, 2, 1, 2, 3, 2, 3, 3, 4, 4, 4, 4, 4, 4, 4, 4, 4, 4, 4, 5, 5, 5, 5, 6, 6, 7, 6, 5, 4, 4, 2, 1, 1, 1, 1, 0, 0, 0, 0, 0, 0, 1, 1, 1, 1, 1, 2, 3, 2, 2, 1, 2, 2, 1, 4, 3, 3, 3, 3, 3, 3, 3, 4, 4, 4, 4, 4, 4, 4, 5, 5, 5, 5, 5, 5, 4, 3, 3, 2, 1, 1, 1, 1, 0, 0, 0, 0, 0, 0, 0, 1, 1, 1, 1, 2, 2, 1, 2, 2, 3, 3, 1, 3, 3, 3, 4, 4, 4, 4, 3, 4, 4, 4, 4, 4, 4, 4, 4, 5, 4, 4, 5, 5, 4, 3, 3, 3, 1, 1, 1, 0, 0, 0, 0, 0, 0, 0, 0, 0, 0, 1, 1, 2, 3, 2, 1, 2, 2, 2, 2, 2, 2, 2, 3, 4, 4, 4, 3, 4, 4, 4, 4, 4, 4, 5, 5, 5, 5, 6, 6, 4, 4, 3, 3, 0, 0, 1, 0, 0, 0, 0, 0, 0, 0, 0, 0, 0, 0, 0, 0, 0, 4, 6, 8, 10, 11, 13, 12, 14, 14, 14, 15, 15, 17, 19, 20, 23, 22, 23, 27, 30, 33, 35, 44, 51, 55, 62, 58, 60, 48, 40, 29, 0, 0, 11, 3, 1, 0, 0, 0, 0, 0, 0, 0, 1, 2, 3, 5, 6, 9, 15, 14, 19, 19, 21, 21, 21, 21, 21, 21, 22, 22, 24, 27, 29, 29, 31, 32, 37, 37, 44, 46, 55, 58, 64, 62, 66, 59, 48, 36, 26, 19, 15, 7, 6, 4, 4, 3, 4, 4, 5, 5, 6, 8, 8, 8, 11, 11, 17, 17, 19, 21, 21, 22, 22, 20, 21, 20, 23, 22, 22, 26, 27, 27, 31, 32, 37, 34, 42, 42, 50, 53, 58, 60, 58, 54, 49, 37, 24, 13, 9, 4, 2, 0, 0, 0, 0, 0, 0, 1, 1, 2, 3, 4, 7, 9, 13, 14, 17, 19, 19, 21, 22, 20, 21, 20, 21, 22, 22, 25, 29, 28, 30, 31, 35, 36, 41, 45, 51, 56, 62, 63, 58, 50, 44, 33, 19, 12, 8, 5, 4, 2, 1, 1, 1, 1, 1, 2, 3, 5, 6, 7, 9, 12, 15, 14, 17, 17, 19, 18, 18, 18, 19, 18, 20, 21, 22, 22, 23, 25, 26, 26, 28, 29, 31, 33, 35, 37, 42, 41, 43, 39, 33, 27, 15, 10, 4, 2, 0, 0, 0, 0, 0, 0, 0, 0, 1, 2, 3, 4, 7, 8, 12, 13, 14, 13, 17, 17, 17, 14, 18, 15, 17, 19, 20, 18, 22, 22, 24, 24, 27, 26, 29, 28, 29, 30, 35, 33, 32, 31, 23, 20, 19, 13, 10, 5, 3, 2, 2, 1, 1, 0, 1, 1, 2, 2, 3, 4, 6, 7, 11, 14, 14, 15, 16, 16, 18, 18, 15, 18, 19, 19, 21, 19, 25, 23, 25, 26, 26, 29, 32, 32, 33, 34, 37, 38, 32, 30, 27, 18, 0, 0, 0, 0, 0, 0, 0, 0, 0, 0, 1, 1, 1, 1, 2, 2, 2, 3, 3, 3, 2, 3, 3, 3, 4, 4, 5, 4, 6, 5, 5, 5, 6, 6, 6, 8, 8, 8, 9, 9, 8, 7, 5, 5, 3, 2, 1, 1, 0, 0, 0, 0, 0, 0, 0, 0, 0, 0, 0, 0, 0, 1, 1, 1, 2, 2, 2, 2, 2, 2, 2, 2, 3, 3, 4, 4, 5, 4, 4, 4, 5, 5, 6, 6, 7, 7, 8, 8, 6, 6, 5, 3, 2, 1, 1, 0, 0, 0, 0, 0, 0, 0, 0, 0, 0, 0, 0, 0, 0, 1, 1, 2, 2, 2, 2, 3, 1, 2, 2, 2, 3, 3, 4, 3, 5, 4, 5, 4, 4, 5, 5, 6, 6, 6, 7, 7, 6, 5, 4, 3, 2, 1, 0, 0, 0, 0, 0, 0, 0, 0, 0, 0, 0, 0, 0, 0, 0, 1, 1, 1, 1, 2, 2, 2, 2, 2, 2, 2, 3, 3, 4, 4, 4, 4, 4, 4, 4, 4, 5, 5, 5, 6, 6, 6, 5, 5, 4, 2, 2, 1, 1, 0, 0, 0, 0, 0, 0, 0, 0, 0, 0, 0, 0, 0, 0, 1, 1, 1, 1, 2, 2, 2, 2, 2, 2, 2, 2, 2, 3, 3, 3, 3, 3, 3, 3, 3, 4, 3, 3, 3, 4, 4, 3, 3, 2, 2, 1, 1, 0, 0, 0, 0, 0, 0, 0, 0, 0, 0, 0, 0, 0, 0, 0, 1, 1, 1, 1, 1, 2, 2, 2, 1, 2, 1, 2, 2, 3, 2, 3, 2, 3, 2, 2, 3, 3, 2, 2, 3, 3, 3, 2, 2, 2, 1, 1, 1, 1, 0, 0, 0, 0, 0, 0, 0, 0, 0, 0, 0, 0, 0, 0, 1, 1, 1, 1, 2, 2, 2, 2, 2, 2, 2, 2, 2, 3, 2, 3, 3, 3, 3, 3, 3, 3, 3, 3, 3, 3, 3, 2, 2, 2, 2, 1, 1, 1, 0, 0, 0, 6, 1, 2, 1, 0, 2, 1, 3, 5, 6, 11, 10, 10, 13, 17, 20, 23, 32, 31, 33, 37, 38, 40, 33, 40, 40, 40, 41, 45, 47, 53, 53, 59, 60, 68, 70, 82, 81, 84, 88, 90, 86, 79, 63, 52, 36, 0, 0, 10, 5, 3, 2, 0, 2, 2, 3, 4, 6, 11, 13, 14, 12, 20, 21, 30, 32, 37, 38, 39, 42, 41, 39, 39, 43, 43, 44, 45, 49, 52, 51, 61, 64, 71, 70, 85, 82, 90, 95, 101, 95, 89, 80, 59, 44, 33, 19, 15, 9, 8, 6, 4, 3, 5, 6, 8, 10, 13, 14, 16, 19, 24, 23, 33, 34, 41, 39, 45, 43, 46, 42, 48, 47, 47, 44, 50, 49, 56, 54, 64, 57, 66, 67, 76, 78, 82, 82, 89, 85, 78, 69, 58, 43, 27, 13, 9, 3, 2, 1, 0, 1, 2, 3, 4, 4, 8, 9, 10, 13, 18, 18, 28, 31, 37, 39, 42, 42, 41, 39, 42, 38, 42, 42, 46, 51, 54, 56, 59, 58, 68, 71, 73, 76, 81, 79, 85, 77, 68, 62, 48, 36, 22, 14, 10, 3, 3, 1, 0, 0, 2, 2, 4, 7, 8, 9, 11, 12, 18, 17, 28, 28, 32, 33, 34, 35, 34, 34, 35, 35, 36, 34, 41, 39, 42, 42, 48, 49, 53, 49, 53, 51, 52, 54, 55, 55, 50, 43, 35, 24, 18, 11, 9, 9, 6, 4, 2, 1, 4, 4, 3, 4, 7, 11, 11, 12, 19, 20, 24, 31, 31, 34, 36, 33, 38, 34, 35, 31, 34, 35, 38, 38, 42, 41, 44, 38, 41, 44, 44, 40, 43, 42, 44, 43, 43, 36, 32, 20, 21, 11, 9, 5, 4, 0, 0, 0, 0, 1, 2, 2, 3, 6, 9, 9, 15, 14, 23, 23, 29, 31, 33, 31, 32, 31, 34, 31, 32, 31, 37, 38, 42, 42, 45, 45, 52, 48, 50, 52, 53, 54, 58, 52, 45, 36, 30, 22
];
timeLabels = 
"2018-02-26 00:00:00","2018-02-26 00:30:00","2018-02-26 01:00:00","2018-02-26 01:30:00","2018-02-26 02:00:00","2018-02-26 02:30:00","2018-02-26 03:00:00","2018-02-26 03:30:00","2018-02-26 04:00:00","2018-02-26 04:30:00","2018-02-26 05:00:00","2018-02-26 05:30:00","2018-02-26 06:00:00","2018-02-26 06:30:00","2018-02-26 07:00:00","2018-02-26 07:30:00","2018-02-26 08:00:00","2018-02-26 08:30:00","2018-02-26 09:00:00","2018-02-26 09:30:00","2018-02-26 10:00:00","2018-02-26 10:30:00","2018-02-26 11:00:00","2018-02-26 11:30:00","2018-02-26 12:00:00","2018-02-26 12:30:00","2018-02-26 13:00:00","2018-02-26 13:30:00","2018-02-26 14:00:00","2018-02-26 14:30:00","2018-02-26 15:00:00","2018-02-26 15:30:00","2018-02-26 16:00:00","2018-02-26 16:30:00","2018-02-26 17:00:00","2018-02-26 17:30:00","2018-02-26 18:00:00","2018-02-26 18:30:00","2018-02-26 19:00:00","2018-02-26 19:30:00","2018-02-26 20:00:00","2018-02-26 20:30:00","2018-02-26 21:00:00","2018-02-26 21:30:00","2018-02-26 22:00:00","2018-02-26 22:30:00","2018-02-26 23:00:00","2018-02-26 23:30:00","2018-02-27 00:00:00","2018-02-27 00:30:00","2018-02-27 01:00:00","2018-02-27 01:30:00","2018-02-27 02:00:00","2018-02-27 02:30:00","2018-02-27 03:00:00","2018-02-27 03:30:00","2018-02-27 04:00:00","2018-02-27 04:30:00","2018-02-27 05:00:00","2018-02-27 05:30:00","2018-02-27 06:00:00","2018-02-27 06:30:00","2018-02-27 07:00:00","2018-02-27 07:30:00","2018-02-27 08:00:00","2018-02-27 08:30:00","2018-02-27 09:00:00","2018-02-27 09:30:00","2018-02-27 10:00:00","2018-02-27 10:30:00","2018-02-27 11:00:00","2018-02-27 11:30:00","2018-02-27 12:00:00","2018-02-27 12:30:00","2018-02-27 13:00:00","2018-02-27 13:30:00","2018-02-27 14:00:00","2018-02-27 14:30:00","2018-02-27 15:00:00","2018-02-27 15:30:00","2018-02-27 16:00:00","2018-02-27 16:30:00","2018-02-27 17:00:00","2018-02-27 17:30:00","2018-02-27 18:00:00","2018-02-27 18:30:00","2018-02-27 19:00:00","2018-02-27 19:30:00","2018-02-27 20:00:00","2018-02-27 20:30:00","2018-02-27 21:00:00","2018-02-27 21:30:00","2018-02-27 22:00:00","2018-02-27 22:30:00","2018-02-27 23:00:00","2018-02-27 23:30:00","2018-02-28 00:00:00","2018-02-28 00:30:00","2018-02-28 01:00:00","2018-02-28 01:30:00","2018-02-28 02:00:00","2018-02-28 02:30:00","2018-02-28 03:00:00","2018-02-28 03:30:00","2018-02-28 04:00:00","2018-02-28 04:30:00","2018-02-28 05:00:00","2018-02-28 05:30:00","2018-02-28 06:00:00","2018-02-28 06:30:00","2018-02-28 07:00:00","2018-02-28 07:30:00","2018-02-28 08:00:00","2018-02-28 08:30:00","2018-02-28 09:00:00","2018-02-28 09:30:00","2018-02-28 10:00:00","2018-02-28 10:30:00","2018-02-28 11:00:00","2018-02-28 11:30:00","2018-02-28 12:00:00","2018-02-28 12:30:00","2018-02-28 13:00:00","2018-02-28 13:30:00","2018-02-28 14:00:00","2018-02-28 14:30:00","2018-02-28 15:00:00","2018-02-28 15:30:00","2018-02-28 16:00:00","2018-02-28 16:30:00","2018-02-28 17:00:00","2018-02-28 17:30:00","2018-02-28 18:00:00","2018-02-28 18:30:00","2018-02-28 19:00:00","2018-02-28 19:30:00","2018-02-28 20:00:00","2018-02-28 20:30:00","2018-02-28 21:00:00","2018-02-28 21:30:00","2018-02-28 22:00:00","2018-02-28 22:30:00","2018-02-28 23:00:00","2018-02-28 23:30:00","2018-03-01 00:00:00","2018-03-01 00:30:00","2018-03-01 01:00:00","2018-03-01 01:30:00","2018-03-01 02:00:00","2018-03-01 02:30:00","2018-03-01 03:00:00","2018-03-01 03:30:00","2018-03-01 04:00:00","2018-03-01 04:30:00","2018-03-01 05:00:00","2018-03-01 05:30:00","2018-03-01 06:00:00","2018-03-01 06:30:00","2018-03-01 07:00:00","2018-03-01 07:30:00","2018-03-01 08:00:00","2018-03-01 08:30:00","2018-03-01 09:00:00","2018-03-01 09:30:00","2018-03-01 10:00:00","2018-03-01 10:30:00","2018-03-01 11:00:00","2018-03-01 11:30:00","2018-03-01 12:00:00","2018-03-01 12:30:00","2018-03-01 13:00:00","2018-03-01 13:30:00","2018-03-01 14:00:00","2018-03-01 14:30:00","2018-03-01 15:00:00","2018-03-01 15:30:00","2018-03-01 16:00:00","2018-03-01 16:30:00","2018-03-01 17:00:00","2018-03-01 17:30:00","2018-03-01 18:00:00","2018-03-01 18:30:00","2018-03-01 19:00:00","2018-03-01 19:30:00","2018-03-01 20:00:00","2018-03-01 20:30:00","2018-03-01 21:00:00","2018-03-01 21:30:00","2018-03-01 22:00:00","2018-03-01 22:30:00","2018-03-01 23:00:00","2018-03-01 23:30:00","2018-03-02 00:00:00","2018-03-02 00:30:00","2018-03-02 01:00:00","2018-03-02 01:30:00","2018-03-02 02:00:00","2018-03-02 02:30:00","2018-03-02 03:00:00","2018-03-02 03:30:00","2018-03-02 04:00:00","2018-03-02 04:30:00","2018-03-02 05:00:00","2018-03-02 05:30:00","2018-03-02 06:00:00","2018-03-02 06:30:00","2018-03-02 07:00:00","2018-03-02 07:30:00","2018-03-02 08:00:00","2018-03-02 08:30:00","2018-03-02 09:00:00","2018-03-02 09:30:00","2018-03-02 10:00:00","2018-03-02 10:30:00","2018-03-02 11:00:00","2018-03-02 11:30:00","2018-03-02 12:00:00","2018-03-02 12:30:00","2018-03-02 13:00:00","2018-03-02 13:30:00","2018-03-02 14:00:00","2018-03-02 14:30:00","2018-03-02 15:00:00","2018-03-02 15:30:00","2018-03-02 16:00:00","2018-03-02 16:30:00","2018-03-02 17:00:00","2018-03-02 17:30:00","2018-03-02 18:00:00","2018-03-02 18:30:00","2018-03-02 19:00:00","2018-03-02 19:30:00","2018-03-02 20:00:00","2018-03-02 20:30:00","2018-03-02 21:00:00","2018-03-02 21:30:00","2018-03-02 22:00:00","2018-03-02 22:30:00","2018-03-02 23:00:00","2018-03-02 23:30:00","2018-03-03 00:00:00","2018-03-03 00:30:00","2018-03-03 01:00:00","2018-03-03 01:30:00","2018-03-03 02:00:00","2018-03-03 02:30:00","2018-03-03 03:00:00","2018-03-03 03:30:00","2018-03-03 04:00:00","2018-03-03 04:30:00","2018-03-03 05:00:00","2018-03-03 05:30:00","2018-03-03 06:00:00","2018-03-03 06:30:00","2018-03-03 07:00:00","2018-03-03 07:30:00","2018-03-03 08:00:00","2018-03-03 08:30:00","2018-03-03 09:00:00","2018-03-03 09:30:00","2018-03-03 10:00:00","2018-03-03 10:30:00","2018-03-03 11:00:00","2018-03-03 11:30:00","2018-03-03 12:00:00","2018-03-03 12:30:00","2018-03-03 13:00:00","2018-03-03 13:30:00","2018-03-03 14:00:00","2018-03-03 14:30:00","2018-03-03 15:00:00","2018-03-03 15:30:00","2018-03-03 16:00:00","2018-03-03 16:30:00","2018-03-03 17:00:00","2018-03-03 17:30:00","2018-03-03 18:00:00","2018-03-03 18:30:00","2018-03-03 19:00:00","2018-03-03 19:30:00","2018-03-03 20:00:00","2018-03-03 20:30:00","2018-03-03 21:00:00","2018-03-03 21:30:00","2018-03-03 22:00:00","2018-03-03 22:30:00","2018-03-03 23:00:00","2018-03-03 23:30:00","2018-03-04 00:00:00","2018-03-04 00:30:00","2018-03-04 01:00:00","2018-03-04 01:30:00","2018-03-04 02:00:00","2018-03-04 02:30:00","2018-03-04 03:00:00","2018-03-04 03:30:00","2018-03-04 04:00:00","2018-03-04 04:30:00","2018-03-04 05:00:00","2018-03-04 05:30:00","2018-03-04 06:00:00","2018-03-04 06:30:00","2018-03-04 07:00:00","2018-03-04 07:30:00","2018-03-04 08:00:00","2018-03-04 08:30:00","2018-03-04 09:00:00","2018-03-04 09:30:00","2018-03-04 10:00:00","2018-03-04 10:30:00","2018-03-04 11:00:00","2018-03-04 11:30:00","2018-03-04 12:00:00","2018-03-04 12:30:00","2018-03-04 13:00:00","2018-03-04 13:30:00","2018-03-04 14:00:00","2018-03-04 14:30:00","2018-03-04 15:00:00","2018-03-04 15:30:00","2018-03-04 16:00:00","2018-03-04 16:30:00","2018-03-04 17:00:00","2018-03-04 17:30:00","2018-03-04 18:00:00","2018-03-04 18:30:00","2018-03-04 19:00:00","2018-03-04 19:30:00","2018-03-04 20:00:00","2018-03-04 20:30:00","2018-03-04 21:00:00","2018-03-04 21:30:00","2018-03-04 22:00:00","2018-03-04 22:30:00","2018-03-04 23:00:00","2018-03-04 23:30:00"];
